0 0 0 0
0 1 0 0
0 2 0 0
0 3 1 0
0 4 0 4
0 5 2 1
0 6 1 1
0 7 0 4
0 8 2 9
0 9 0 4
0 10 0 6
0 11 2 7
0 12 1 11
0 13 0 6
0 14 0 8
0 15 0 8
0 16 0 16
0 17 0 16
0 18 0 17
0 19 0 19
0 20 0 19
0 21 0 19
0 22 0 22
0 23 2 11
0 24 0 23
0 25 0 24
0 26 0 21
0 27 0 20
0 28 0 29
0 29 0 25
0 30 2 23
0 31 0 31
